9 
10 
9 
10 
9 
7 
9 
9 
8 
9 
8 
8 
8 
10 
9 
8 
9 
7 
11 
9 
10 
10 
8 
8 
8 
8 
9 
9 
10 
9 
7 
7 
9 
8 
8 
7 
7 
7 
11 
11 
8 
8 
9 
9 
11 
9 
9 
9 
10 
10 
10 
8 
9 
9 
9 
10 
9 
8 
10 
10 
10 
7 
8 
7 
9 
9 
9 
8 
9 
7 
9 
10 
9 
9 
9 
8 
8 
10 
10 
8 
8 
7 
9 
9 
10 
10 
10 
9 
5 
7 
8 
8 
11 
8 
9 
10 
8 
8 
5 
8 
